
  32    4
   1   1   1   1

   0   0   0   0   0  12 2 3 4 5 6 7 8 9 11 13 30 31 
   8   0   0   1   1   6   28   22   19   18   15   10
   2   1   0   1   1   5   29   24   23   17   14
   3   1   0   0   1   5   24   23   19   18   14
   7   1   0   0   0   4   21   19   15   12
   5   1   1   0   1   4   18   17   15   14
   5   0   0   0   1   4   27   22   16   15
   4   0   1   1   0   3   20   15   14
   2   1   0   1   0   3   17   16   14
   5   0   0   0   1   2   25   20
   6   1   0   0   0   2   26   21
   2   1   0   1   0   1   14
   3   0   0   1   0   1   16
   2   0   0   1   0   1   32
   4   0   1   1   1   1   32
   10   0   1   1   1   1   32
   3   0   0   0   1   1   32
   7   1   0   0   0   1   32
   7   0   0   0   1   1   32
   5   1   1   0   0   1   32
   4   0   1   1   1   1   32
   7   1   0   1   1   1   32
   6   1   1   1   0   1   32
   8   1   1   0   1   1   32
   2   1   1   1   1   1   32
   3   0   1   1   0   1   32
   10   0   1   1   1   1   32
   3   0   1   1   0   1   32
   1   0   1   0   0   1   32
   6   1   0   1   0   1   32
   1   0   1   0   0   1   32
   0   0   0   0   0   0 
